NAME : E-n22-k4
COMMENT : (Christophides and Eilon, Min no of trucks: 4, Optimal value: 375)
TYPE : CVRP
DIMENSION : 4
EDGE_WEIGHT_TYPE : EUC_2D
CAPACITY : 1500
NODE_COORD_SECTION
1 0 0
2 1 0
3 2 0
4 5 0
DEMAND_SECTION
1 0
2 1100
3 700
4 800
DEPOT_SECTION
 1
 -1
EOF